<?xml version = "1.0" standalone="yes"?>
<!-- This file has been generated by DOcplex version 2.23.222  -->
<CPLEXSolution version="1.0">
 <header
   problemName="CVRP"
   objectiveValue="22456.1"
  />
 <variables>
  <variable name="x_0_1" index="0" value="1.00000"/>
  <variable name="x_0_2" index="1" value="1.00000"/>
  <variable name="x_0_3" index="2" value="1.00000"/>
  <variable name="x_0_8" index="7" value="1.00000"/>
  <variable name="x_0_9" index="8" value="1.00000"/>
  <variable name="x_0_10" index="9" value="1.00000"/>
  <variable name="x_0_15" index="14" value="1.00000"/>
  <variable name="x_0_16" index="15" value="1.00000"/>
  <variable name="x_0_17" index="16" value="1.00000"/>
  <variable name="x_0_18" index="17" value="1.00000"/>
  <variable name="x_0_20" index="19" value="1.00000"/>
  <variable name="x_0_22" index="21" value="1.00000"/>
  <variable name="x_0_26" index="25" value="1.00000"/>
  <variable name="x_0_27" index="26" value="1.00000"/>
  <variable name="x_0_28" index="27" value="1.00000"/>
  <variable name="x_1_4" index="31" value="1.00000"/>
  <variable name="x_2_0" index="56" value="1.00000"/>
  <variable name="x_3_0" index="84" value="1.00000"/>
  <variable name="x_4_0" index="112" value="1.00000"/>
  <variable name="x_5_0" index="140" value="1.00000"/>
  <variable name="x_6_0" index="168" value="1.00000"/>
  <variable name="x_7_0" index="196" value="1.00000"/>
  <variable name="x_8_7" index="231" value="1.00000"/>
  <variable name="x_9_6" index="258" value="1.00000"/>
  <variable name="x_10_0" index="280" value="1.00000"/>
  <variable name="x_11_0" index="308" value="1.00000"/>
  <variable name="x_12_24" index="359" value="1.00000"/>
  <variable name="x_13_25" index="388" value="1.00000"/>
  <variable name="x_14_0" index="392" value="1.00000"/>
  <variable name="x_15_14" index="434" value="1.00000"/>
  <variable name="x_16_0" index="448" value="1.00000"/>
  <variable name="x_17_19" index="494" value="1.00000"/>
  <variable name="x_18_5" index="509" value="1.00000"/>
  <variable name="x_19_0" index="532" value="1.00000"/>
  <variable name="x_20_12" index="572" value="1.00000"/>
  <variable name="x_21_11" index="599" value="1.00000"/>
  <variable name="x_22_0" index="616" value="1.00000"/>
  <variable name="x_23_0" index="644" value="1.00000"/>
  <variable name="x_24_0" index="672" value="1.00000"/>
  <variable name="x_25_0" index="700" value="1.00000"/>
  <variable name="x_26_23" index="751" value="1.00000"/>
  <variable name="x_27_13" index="769" value="1.00000"/>
  <variable name="x_28_21" index="805" value="1.00000"/>
  <variable name="u_1" index="812" value="10.00000"/>
  <variable name="u_2" index="813" value="24.00000"/>
  <variable name="u_3" index="814" value="24.00000"/>
  <variable name="u_4" index="815" value="24.00000"/>
  <variable name="u_5" index="816" value="24.00000"/>
  <variable name="u_6" index="817" value="19.00000"/>
  <variable name="u_7" index="818" value="24.00000"/>
  <variable name="u_8" index="819" value="16.00000"/>
  <variable name="u_9" index="820" value="10.00000"/>
  <variable name="u_10" index="821" value="24.00000"/>
  <variable name="u_11" index="822" value="24.00000"/>
  <variable name="u_12" index="823" value="15.00000"/>
  <variable name="u_13" index="824" value="15.00000"/>
  <variable name="u_14" index="825" value="24.00000"/>
  <variable name="u_15" index="826" value="3.00000"/>
  <variable name="u_16" index="827" value="23.00000"/>
  <variable name="u_17" index="828" value="5.00000"/>
  <variable name="u_18" index="829" value="8.00000"/>
  <variable name="u_19" index="830" value="22.00000"/>
  <variable name="u_20" index="831" value="6.00000"/>
  <variable name="u_21" index="832" value="22.00000"/>
  <variable name="u_22" index="833" value="19.00000"/>
  <variable name="u_23" index="834" value="24.00000"/>
  <variable name="u_24" index="835" value="24.00000"/>
  <variable name="u_25" index="836" value="17.00000"/>
  <variable name="u_26" index="837" value="21.00000"/>
  <variable name="u_27" index="838" value="9.00000"/>
  <variable name="u_28" index="839" value="11.00000"/>
 </variables>
</CPLEXSolution>
